
Gurobi 6.5.2 (win64) logging started 07/22/16 21:47:08


Gurobi 6.5.2 (win64) logging started 07/22/16 21:47:08

Optimize a model with 1811 rows, 265 columns and 4175 nonzeros
Coefficient statistics:
  Matrix range    [1e+00, 4e+02]
  Objective range [2e+00, 4e+02]
  Bounds range    [1e+00, 1e+00]
  RHS range       [1e+00, 2e+03]
Presolve removed 1679 rows and 26 columns
Presolve time: 0.02s
Presolved: 132 rows, 239 columns, 1157 nonzeros
Variable types: 0 continuous, 239 integer (239 binary)

Root relaxation: objective 2.034000e+03, 96 iterations, 0.00 seconds

    Nodes    |    Current Node    |     Objective Bounds      |     Work
 Expl Unexpl |  Obj  Depth IntInf | Incumbent    BestBd   Gap | It/Node Time

*    0     0               0    2034.0000000 2034.00000  0.00%     -    0s

Explored 0 nodes (96 simplex iterations) in 0.02 seconds
Thread count was 8 (of 8 available processors)

Optimal solution found (tolerance 1.00e-04)
Best objective 2.034000000000e+03, best bound 2.034000000000e+03, gap 0.0%

Wrote requested result file 'H1\instance22\\Results22SG_Sol5.lp'

